120
150
45
52
53
41
54
50
51
40
60
44
46
45
57
46
40
40
40
60
45
45
52
44
55
45
50
53
43
54
42
48
60
58
49
43
49
43
58
40
51
60
40
56
44
50
44
57
57
48
45
54
47
49
43
50
57
55
48
47
40
40
41
51
49
50
42
54
54
40
52
59
44
47
50
46
54
44
50
57
46
47
51
43
56
58
42
50
54
54
42
40
40
40
57
45
48
41
51
59
43
48
43
58
49
60
52
56
54
50
44
57
59
44
52
54
52
52
57
57
53
54
